p wcnf 175 262 263 
1 160 -68 0 
1 127 -144 0 
1 106 152 0 
1 56 135 0 
1 102 -148 0 
1 -82 11 0 
1 131 77 0 
1 -128 -159 0 
1 11 -66 0 
1 125 81 0 
1 -164 -120 0 
1 -143 -99 0 
1 -84 70 0 
1 40 -59 0 
1 170 109 0 
1 63 -87 0 
1 127 -12 0 
1 -86 132 0 
1 -160 -92 0 
1 138 11 0 
1 11 66 0 
1 116 -97 0 
1 38 -57 0 
1 -31 14 0 
1 -13 17 0 
1 -160 19 0 
1 134 -112 0 
1 134 -175 0 
1 35 -91 0 
1 -112 171 0 
1 -28 31 0 
1 118 -76 0 
1 -135 156 0 
1 140 -43 0 
1 58 131 0 
1 169 -52 0 
1 77 -100 0 
1 44 133 0 
1 154 137 0 
1 -129 -127 0 
1 -69 -157 0 
1 19 -166 0 
1 95 -33 0 
1 -63 2 0 
1 -63 -66 0 
1 -60 -44 0 
1 175 78 0 
1 -20 -75 0 
1 -108 -123 0 
1 -139 92 0 
1 4 -93 0 
1 68 -15 0 
1 -123 23 0 
1 -13 62 0 
1 157 -25 0 
1 -148 -54 0 
1 82 139 0 
1 31 65 0 
1 -160 116 0 
1 -152 4 0 
1 72 -112 0 
1 -175 -62 0 
1 -55 -72 0 
1 31 164 0 
1 -46 118 0 
1 12 106 0 
1 7 160 0 
1 -156 48 0 
1 71 -118 0 
1 -116 -136 0 
1 -167 -107 0 
1 -5 46 0 
1 -95 80 0 
1 -77 -128 0 
1 -150 82 0 
1 45 -24 0 
1 -162 -56 0 
1 -92 85 0 
1 27 41 0 
1 168 -106 0 
1 -96 78 0 
1 129 -63 0 
1 -112 19 0 
1 135 -140 0 
1 -29 -139 0 
1 -79 26 0 
1 -36 127 0 
1 10 -168 0 
1 -172 148 0 
1 -90 -172 0 
1 114 -147 0 
1 34 -36 0 
1 -141 -46 0 
1 -22 -40 0 
1 61 -136 0 
1 66 13 0 
1 -166 104 0 
1 -90 154 0 
1 -34 -55 0 
1 91 -149 0 
1 -57 11 0 
1 100 -49 0 
1 21 163 0 
1 147 -111 0 
1 31 132 0 
1 125 -139 0 
1 4 -114 0 
1 91 -27 0 
1 -36 -105 0 
1 -67 -125 0 
1 100 -79 0 
1 -75 173 0 
1 -129 -130 0 
1 -105 -124 0 
1 -57 39 0 
1 31 47 0 
1 -128 -23 0 
1 -90 -137 0 
1 162 -126 0 
1 -97 -23 0 
1 -32 -38 0 
1 158 -97 0 
1 -164 114 0 
1 49 -28 0 
1 159 130 0 
1 -127 95 0 
1 174 -110 0 
1 -136 53 0 
1 -125 -52 0 
1 94 4 0 
1 -47 28 0 
1 -53 -87 0 
1 29 175 0 
1 96 57 0 
1 115 -55 0 
1 -100 -89 0 
1 81 70 0 
1 108 131 0 
1 -97 14 0 
1 76 -46 0 
1 -11 76 0 
1 78 71 0 
1 -117 -33 0 
1 -13 -85 0 
1 48 -29 0 
1 91 -85 0 
1 -149 -155 0 
1 -174 -24 0 
1 62 83 0 
1 131 45 0 
1 -17 109 0 
1 63 -52 0 
1 2 73 0 
1 31 135 0 
1 -40 166 0 
1 -64 -126 0 
1 -138 -152 0 
1 -51 -155 0 
1 62 -167 0 
1 157 125 0 
1 126 85 0 
1 107 121 0 
1 -41 -110 0 
1 -169 -79 0 
1 56 45 0 
1 -117 -3 0 
1 107 -121 0 
1 109 -170 0 
1 -77 40 0 
1 -140 -101 0 
1 143 -43 0 
1 -173 -146 0 
1 12 -4 0 
1 46 -164 0 
1 150 126 0 
1 -122 159 0 
1 150 63 0 
1 -96 -156 0 
1 -19 166 0 
1 -23 62 0 
1 28 17 0 
1 -155 161 0 
1 56 -65 0 
1 99 -161 0 
1 93 71 0 
1 -94 -73 0 
1 34 132 0 
1 147 -99 0 
1 159 8 0 
1 -42 -43 0 
1 142 -79 0 
1 118 91 0 
1 -17 90 0 
1 55 -43 0 
1 53 -154 0 
1 -19 57 0 
1 167 -62 0 
1 -134 -10 0 
1 -14 -107 0 
1 -86 -26 0 
1 -27 -5 0 
1 -68 -33 0 
1 126 -8 0 
1 94 63 0 
1 164 -74 0 
1 -50 -68 0 
1 58 -99 0 
1 -31 51 0 
1 30 -144 0 
1 -112 103 0 
1 -166 -87 0 
1 -106 11 0 
1 162 -106 0 
1 14 -32 0 
1 -166 120 0 
1 -103 -23 0 
1 -113 -160 0 
1 -76 -147 0 
1 -39 17 0 
1 -36 -51 0 
1 -159 -167 0 
1 118 -120 0 
1 -67 -66 0 
1 -99 155 0 
1 -146 -65 0 
1 -73 156 0 
1 136 -1 0 
1 59 6 0 
1 97 47 0 
1 9 -134 0 
1 95 23 0 
1 114 105 0 
1 -6 67 0 
1 160 -164 0 
1 -58 -83 0 
1 112 170 0 
1 48 -135 0 
1 142 -42 0 
1 124 -27 0 
1 -50 141 0 
1 42 -121 0 
1 -145 -78 0 
1 147 157 0 
1 79 57 0 
1 19 -164 0 
1 -37 -23 0 
1 99 24 0 
1 140 121 0 
1 -73 -63 0 
1 66 34 0 
1 156 21 0 
1 -25 -42 0 
1 6 61 0 
1 -62 5 0 
1 -58 94 0 
1 -31 77 0 
1 70 113 0 
1 -2 25 0 
1 -9 153 0 
1 -165 -147 0 
1 47 26 0 
1 174 -112 0 
